Problem:    GLP
Rows:       3
Columns:    2
Non-zeros:  6
Status:     OPTIMAL
Objective:  obj = -3 (MINimum)

   No.   Row name   St   Activity     Lower bound   Upper bound    Marginal
------ ------------ -- ------------- ------------- ------------- -------------
     1 obj          B             -3                             
     2 c1           NL            -2            -2                           1 
     3 c2           NL            -1            -1                           1 

   No. Column name  St   Activity     Lower bound   Upper bound    Marginal
------ ------------ -- ------------- ------------- ------------- -------------
     1 x1           B       -1.66667                             
     2 x2           B       -1.33333                             

Karush-Kuhn-Tucker optimality conditions:

KKT.PE: max.abs.err = 4.44e-16 on row 2
        max.rel.err = 7.01e-17 on row 3
        High quality

KKT.PB: max.abs.err = 0.00e+00 on row 0
        max.rel.err = 0.00e+00 on row 0
        High quality

KKT.DE: max.abs.err = 0.00e+00 on column 0
        max.rel.err = 0.00e+00 on column 0
        High quality

KKT.DB: max.abs.err = 0.00e+00 on row 0
        max.rel.err = 0.00e+00 on row 0
        High quality

End of output
